Version identifier: 20.1.0.0 | 2020-11-10 | 9bedb6d68
Tried aggregator 2 times.
MIP Presolve eliminated 1271 rows and 693 columns.
MIP Presolve modified 2586 coefficients.
Aggregator did 147 substitutions.
Reduced MIP has 1138 rows, 967 columns, and 3629 nonzeros.
Reduced MIP has 302 binaries, 665 generals, 0 SOSs, and 0 indicators.
Presolve time = 0.02 sec. (5.66 ticks)
Found incumbent of value 49.000000 after 0.03 sec. (9.83 ticks)
Probing fixed 30 vars, tightened 236 bounds.
Probing time = 0.00 sec. (1.12 ticks)
Tried aggregator 1 time.
Detecting symmetries...
MIP Presolve eliminated 450 rows and 30 columns.
MIP Presolve modified 76 coefficients.
Reduced MIP has 688 rows, 937 columns, and 2249 nonzeros.
Reduced MIP has 440 binaries, 497 generals, 0 SOSs, and 0 indicators.
Presolve time = 0.01 sec. (2.72 ticks)
Probing time = 0.00 sec. (0.22 ticks)
Clique table members: 61.
MIP emphasis: balance optimality and feasibility.
MIP search method: dynamic search.
Parallel mode: deterministic, using up to 24 threads.
Root relaxation solution time = 0.00 sec. (1.62 ticks)

        Nodes                                         Cuts/
   Node  Left     Objective  IInf  Best Integer    Best Bound    ItCnt     Gap

*     0+    0                           49.0000        0.0000           100.00%
      0     0        0.0000    44       49.0000        0.0000      158  100.00%
      0     0        0.5833    75       49.0000     Cuts: 215      399   98.81%
*     0+    0                           12.0000        0.5833            95.14%
      0     0        1.1429   254       12.0000      Cuts: 78      590   90.48%
      0     0        1.1846   280       12.0000      Cuts: 90      667   90.13%
      0     0        1.2222   277       12.0000      Cuts: 62      707   89.81%
      0     0        1.2222   286       12.0000      Cuts: 55      767   89.81%
      0     0        1.2500   264       12.0000      Cuts: 51      840   89.58%
      0     0        1.3333   262       12.0000      Cuts: 87      925   88.89%
*     0+    0                            8.0000        1.3333            83.33%
      0     0        cutoff              8.0000        8.0000     1084    0.00%
Elapsed time = 0.26 sec. (96.26 ticks, tree = 0.01 MB, solutions = 3)

Cover cuts applied:  9
Implied bound cuts applied:  25
Flow cuts applied:  1
Mixed integer rounding cuts applied:  36
Zero-half cuts applied:  187
Gomory fractional cuts applied:  18

Root node processing (before b&c):
  Real time             =    0.26 sec. (96.35 ticks)
Parallel b&c, 24 threads:
  Real time             =    0.00 sec. (0.00 ticks)
  Sync time (average)   =    0.00 sec.
  Wait time (average)   =    0.00 sec.
                          ------------
Total (root+branch&cut) =    0.26 sec. (96.35 ticks)

Solution status = Optimal
Solution LB = 8
Solution UB = 8
Runtime = 0.268643 seconds
	Command being timed: "/home/min/git_repos/CS598MEBProject/CNT-ILP/build/cnt -s 2 ./output/k6_n30/simC_c1_k6_n30_u2_s2_del02.input-left.cnp"
	User time (seconds): 2.97
	System time (seconds): 0.08
	Percent of CPU this job got: 1061%
	Elapsed (wall clock) time (h:mm:ss or m:ss): 0:00.28
	Average shared text size (kbytes): 0
	Average unshared data size (kbytes): 0
	Average stack size (kbytes): 0
	Average total size (kbytes): 0
	Maximum resident set size (kbytes): 81816
	Average resident set size (kbytes): 0
	Major (requiring I/O) page faults: 0
	Minor (reclaiming a frame) page faults: 17812
	Voluntary context switches: 4555
	Involuntary context switches: 351
	Swaps: 0
	File system inputs: 0
	File system outputs: 16
	Socket messages sent: 0
	Socket messages received: 0
	Signals delivered: 0
	Page size (bytes): 4096
	Exit status: 0
